Normalized Data/p04_13_normalized_splitx10_0.vrp
NAME:p04_13_NORMALIZED_splitx10_
BEST_KNOWN: 0
COMMENT: 0
DIMENSION: 609
CAPACITY: 1000
EDGE_WEIGHT_FORMAT: FUNCTION
EDGE_WEIGHT_TYPE: EXACT_2D
NODE_COORD_SECTION
1 0.00000 0.00000
2 36 20
3 36 20
4 36 20
5 36 20
6 20 0
7 20 0
8 20 0
9 20 0
10 -21 38
11 -21 38
12 -21 38
13 -21 38
14 -21 38
15 11 7
16 11 7
17 11 7
18 11 7
19 11 7
20 11 7
21 -26 3
22 -26 3
23 -26 3
24 -26 3
25 -26 3
26 -26 3
27 -26 3
28 23 36
29 23 36
30 23 36
31 23 36
32 23 36
33 23 36
34 -29 -15
35 -29 -15
36 -29 -15
37 -3 -3
38 -3 -3
39 -3 -3
40 -2 16
41 -2 16
42 19 26
43 19 26
44 19 26
45 19 26
46 19 26
47 7 29
48 7 29
49 7 29
50 -23 44
51 -23 44
52 33 40
53 33 40
54 33 40
55 33 40
56 -3 33
57 -3 33
58 -3 33
59 -3 33
60 -3 26
61 -3 26
62 -3 26
63 9 -4
64 9 -4
65 9 -4
66 9 -4
67 -13 45
68 -13 45
69 -13 45
70 -29 -38
71 -29 -38
72 -21 -41
73 -21 -41
74 -21 -41
75 -21 -41
76 -21 -41
77 -21 -12
78 -21 -12
79 -21 -12
80 -21 -12
81 -21 -12
82 -21 -12
83 -25 14
84 -25 14
85 20 24
86 20 24
87 9 25
88 9 25
89 9 25
90 9 25
91 9 25
92 9 25
93 -25 34
94 -25 34
95 -25 34
96 -25 34
97 -25 34
98 -22 8
99 -22 8
100 -22 8
101 -22 8
102 -22 8
103 -22 8
104 22 0
105 22 0
106 22 0
107 22 0
108 -40 43
109 42 27
110 42 27
111 42 27
112 42 27
113 42 27
114 42 27
115 42 27
116 -48 -14
117 -48 -14
118 -48 -14
119 -48 -14
120 -48 -14
121 36 -49
122 36 -49
123 36 -49
124 36 -49
125 36 -49
126 -37 39
127 -37 39
128 -37 39
129 -37 39
130 -37 39
131 -37 39
132 19 33
133 19 33
134 19 33
135 19 33
136 19 33
137 32 33
138 32 33
139 32 33
140 32 33
141 26 -16
142 26 -16
143 26 -16
144 26 -16
145 26 -16
146 26 -16
147 0 0
148 0 0
149 0 0
150 0 0
151 0 0
152 37 -30
153 37 -30
154 20 -49
155 20 -49
156 20 -49
157 20 -49
158 30 -20
159 30 -20
160 30 -20
161 38 -9
162 38 -9
163 -6 -14
164 -6 -14
165 -6 -14
166 -6 -14
167 24 -31
168 24 -31
169 24 -31
170 24 -31
171 24 -31
172 -23 -33
173 -23 -33
174 -23 -33
175 -23 -33
176 4 49
177 4 49
178 4 49
179 4 49
180 4 49
181 4 49
182 -9 -40
183 -9 -40
184 -9 -40
185 -9 -40
186 37 -3
187 37 -3
188 50 -42
189 50 -42
190 50 -42
191 50 -42
192 50 -42
193 48 -5
194 48 -5
195 48 -5
196 48 -5
197 48 -5
198 50 -36
199 50 -36
200 50 -36
201 50 -36
202 50 -36
203 48 -12
204 48 -12
205 48 -12
206 48 -12
207 48 -12
208 48 -12
209 48 -12
210 -41 43
211 -41 43
212 -41 43
213 -41 43
214 -41 43
215 -41 43
216 16 47
217 16 47
218 16 47
219 16 47
220 16 47
221 -39 -18
222 -39 -18
223 -39 -18
224 -39 -18
225 -39 -18
226 -39 -18
227 -39 -18
228 25 -50
229 -16 23
230 -16 23
231 34 -28
232 34 -28
233 34 -28
234 34 -28
235 34 -28
236 8 -49
237 8 -49
238 -22 26
239 -22 26
240 -22 26
241 -22 26
242 -22 26
243 -22 26
244 28 -19
245 28 -19
246 28 -19
247 28 -19
248 -39 42
249 -39 42
250 -39 42
251 -39 42
252 -39 42
253 -39 42
254 12 -3
255 12 -3
256 12 -3
257 12 -3
258 12 -3
259 -39 -31
260 -39 -31
261 44 43
262 44 43
263 39 -32
264 39 -32
265 24 33
266 24 33
267 24 33
268 40 2
269 40 2
270 40 2
271 40 2
272 40 2
273 -47 -28
274 -47 -28
275 -47 -28
276 -47 -28
277 -47 -28
278 -47 -28
279 -47 -28
280 -38 17
281 -38 17
282 -38 17
283 46 -4
284 46 -4
285 46 -4
286 46 -4
287 46 -4
288 46 -4
289 -18 49
290 -18 49
291 -18 49
292 -18 49
293 -5 18
294 -5 18
295 -5 18
296 -23 25
297 -23 25
298 -23 25
299 -23 25
300 -23 25
301 11 22
302 11 22
303 11 22
304 -19 26
305 -19 26
306 -19 26
307 -19 26
308 -19 26
309 -19 26
310 28 37
311 28 37
312 28 37
313 28 37
314 28 37
315 -19 -8
316 -19 -8
317 -19 -8
318 -10 -38
319 -10 -38
320 -10 -38
321 -10 -38
322 -10 -38
323 15 -36
324 15 -36
325 36 48
326 36 48
327 36 48
328 36 48
329 36 48
330 -11 40
331 -11 40
332 -11 40
333 46 -2
334 46 -2
335 46 -2
336 46 -2
337 46 -2
338 46 -2
339 14 -9
340 14 -9
341 14 -9
342 14 -9
343 14 -9
344 14 -9
345 -19 17
346 -19 17
347 -19 17
348 -19 17
349 -19 17
350 34 40
351 -50 -26
352 -50 -26
353 -50 -26
354 5 -6
355 5 -6
356 5 -6
357 5 -6
358 5 -6
359 -27 25
360 -27 25
361 -27 25
362 39 -33
363 39 -33
364 39 -33
365 6 34
366 6 34
367 6 34
368 13 -16
369 13 -16
370 13 -16
371 13 -16
372 13 -16
373 -25 -30
374 -25 -30
375 -25 -30
376 -25 -30
377 -25 -30
378 27 44
379 27 44
380 -13 26
381 -13 26
382 -13 26
383 -13 26
384 10 -8
385 10 -8
386 10 -8
387 10 -8
388 10 -8
389 -38 8
390 -38 8
391 -38 8
392 -38 8
393 -38 8
394 17 -15
395 17 -15
396 17 -15
397 17 -15
398 21 -19
399 -35 -33
400 -35 -33
401 -35 -33
402 -35 -33
403 -35 -33
404 29 20
405 29 20
406 29 20
407 29 20
408 -34 32
409 -34 32
410 -34 32
411 48 15
412 48 15
413 48 15
414 48 15
415 -40 28
416 -40 28
417 45 26
418 45 26
419 -43 23
420 -43 23
421 -43 23
422 -14 -28
423 -14 -28
424 -14 -28
425 -14 -28
426 45 -44
427 45 -44
428 5 -28
429 5 -28
430 5 -28
431 5 -28
432 5 -28
433 5 -28
434 3 -22
435 3 -22
436 -17 21
437 -17 21
438 -16 -1
439 -16 -1
440 -16 -1
441 -16 -1
442 -16 -1
443 -14 -19
444 -14 -19
445 43 -49
446 43 -49
447 43 -49
448 22 -9
449 22 -9
450 9 28
451 9 28
452 26 -22
453 26 -22
454 26 -22
455 26 -22
456 26 -22
457 26 -22
458 26 -22
459 -46 30
460 -46 30
461 -46 30
462 -46 30
463 -46 30
464 -24 -34
465 -24 -34
466 -24 -34
467 -24 -34
468 -24 -34
469 -4 -8
470 -4 -8
471 -4 -8
472 -4 -8
473 -4 -8
474 19 -18
475 19 -18
476 19 -18
477 19 -18
478 19 -18
479 8 16
480 8 16
481 33 39
482 33 39
483 33 39
484 33 39
485 33 39
486 33 39
487 44 -38
488 44 -38
489 21 -5
490 21 -5
491 10 -13
492 10 -13
493 10 -13
494 10 -13
495 7 5
496 7 5
497 7 5
498 7 5
499 7 5
500 -7 -30
501 -7 -30
502 -7 -30
503 -7 -30
504 16 5
505 16 5
506 16 5
507 16 5
508 16 5
509 16 5
510 -18 -19
511 -18 -19
512 -18 -19
513 31 9
514 31 9
515 31 9
516 31 9
517 2 34
518 2 34
519 2 34
520 2 34
521 2 34
522 49 -29
523 15 23
524 15 23
525 15 23
526 15 23
527 15 23
528 15 23
529 32 -13
530 32 -13
531 32 -13
532 -19 -22
533 -19 -22
534 -19 -22
535 -23 29
536 -23 29
537 -23 29
538 -23 29
539 -23 29
540 21 -44
541 21 -44
542 21 -44
543 21 -44
544 21 -44
545 21 -44
546 21 -44
547 -13 -37
548 -13 -37
549 -34 0
550 -34 0
551 -34 0
552 -34 0
553 -34 0
554 -38 47
555 -38 47
556 -38 47
557 -4 -11
558 -4 -11
559 -4 -11
560 -4 -11
561 -4 -11
562 -4 -11
563 -46 14
564 -46 14
565 -46 14
566 -46 14
567 19 -7
568 19 -7
569 19 -7
570 19 -7
571 19 -7
572 -22 50
573 -22 50
574 -22 50
575 -22 50
576 -22 50
577 14 -21
578 14 -21
579 14 -21
580 14 -21
581 14 -21
582 -13 -46
583 -13 -46
584 -13 -46
585 -13 -46
586 -13 -46
587 -13 -46
588 14 -26
589 14 -26
590 14 -26
591 14 -26
592 14 -26
593 34 23
594 34 23
595 6 40
596 6 40
597 6 40
598 6 40
599 -38 13
600 -38 13
601 -38 13
602 -44 -36
603 -44 -36
604 -44 -36
605 -50 12
606 -50 12
607 -50 12
608 -50 12
609 -50 12
DEMAND_SECTION
1 0
2 100
3 10
4 10
5 10
6 200
7 200
8 10
9 10
10 200
11 200
12 50
13 10
14 10
15 200
16 50
17 10
18 10
19 10
20 10
21 200
22 100
23 50
24 10
25 10
26 10
27 10
28 200
29 200
30 10
31 10
32 10
33 10
34 200
35 200
36 100
37 200
38 100
39 50
40 200
41 10
42 100
43 50
44 10
45 10
46 10
47 200
48 200
49 50
50 100
51 50
52 200
53 100
54 10
55 10
56 200
57 200
58 50
59 10
60 200
61 100
62 10
63 200
64 100
65 10
66 10
67 200
68 100
69 10
70 200
71 50
72 200
73 200
74 10
75 10
76 10
77 200
78 200
79 50
80 10
81 10
82 10
83 200
84 200
85 200
86 50
87 200
88 100
89 50
90 10
91 10
92 10
93 200
94 200
95 10
96 10
97 10
98 200
99 200
100 10
101 10
102 10
103 10
104 200
105 100
106 10
107 10
108 200
109 200
110 100
111 50
112 10
113 10
114 10
115 10
116 100
117 10
118 10
119 10
120 10
121 200
122 100
123 50
124 10
125 10
126 200
127 50
128 10
129 10
130 10
131 10
132 200
133 10
134 10
135 10
136 10
137 200
138 100
139 10
140 10
141 200
142 100
143 50
144 10
145 10
146 10
147 200
148 200
149 50
150 10
151 10
152 200
153 200
154 200
155 50
156 10
157 10
158 200
159 10
160 10
161 100
162 50
163 200
164 50
165 10
166 10
167 100
168 50
169 10
170 10
171 10
172 100
173 50
174 10
175 10
176 200
177 100
178 10
179 10
180 10
181 10
182 200
183 10
184 10
185 10
186 200
187 200
188 200
189 200
190 50
191 10
192 10
193 200
194 50
195 10
196 10
197 10
198 200
199 10
200 10
201 10
202 10
203 200
204 100
205 50
206 10
207 10
208 10
209 10
210 200
211 200
212 10
213 10
214 10
215 10
216 200
217 50
218 10
219 10
220 10
221 200
222 100
223 50
224 10
225 10
226 10
227 10
228 200
229 200
230 100
231 100
232 10
233 10
234 10
235 10
236 200
237 100
238 100
239 50
240 10
241 10
242 10
243 10
244 200
245 10
246 10
247 10
248 200
249 100
250 50
251 10
252 10
253 10
254 200
255 100
256 10
257 10
258 10
259 200
260 10
261 100
262 50
263 100
264 50
265 200
266 100
267 10
268 200
269 200
270 10
271 10
272 10
273 200
274 200
275 50
276 10
277 10
278 10
279 10
280 200
281 100
282 10
283 200
284 200
285 50
286 10
287 10
288 10
289 200
290 200
291 10
292 10
293 100
294 10
295 10
296 100
297 10
298 10
299 10
300 10
301 200
302 200
303 100
304 200
305 200
306 10
307 10
308 10
309 10
310 200
311 100
312 50
313 10
314 10
315 100
316 10
317 10
318 200
319 200
320 50
321 10
322 10
323 200
324 100
325 200
326 100
327 10
328 10
329 10
330 200
331 100
332 50
333 200
334 100
335 50
336 10
337 10
338 10
339 200
340 100
341 10
342 10
343 10
344 10
345 200
346 10
347 10
348 10
349 10
350 200
351 200
352 200
353 50
354 200
355 50
356 10
357 10
358 10
359 200
360 200
361 50
362 200
363 200
364 100
365 200
366 100
367 10
368 200
369 200
370 10
371 10
372 10
373 200
374 100
375 10
376 10
377 10
378 200
379 200
380 100
381 10
382 10
383 10
384 100
385 50
386 10
387 10
388 10
389 100
390 10
391 10
392 10
393 10
394 200
395 100
396 10
397 10
398 200
399 200
400 200
401 10
402 10
403 10
404 200
405 10
406 10
407 10
408 200
409 100
410 50
411 100
412 50
413 10
414 10
415 200
416 100
417 200
418 100
419 200
420 200
421 50
422 200
423 100
424 10
425 10
426 200
427 10
428 200
429 200
430 10
431 10
432 10
433 10
434 200
435 200
436 200
437 100
438 100
439 10
440 10
441 10
442 10
443 200
444 200
445 200
446 100
447 50
448 200
449 200
450 200
451 100
452 200
453 100
454 50
455 10
456 10
457 10
458 10
459 200
460 200
461 50
462 10
463 10
464 200
465 10
466 10
467 10
468 10
469 200
470 10
471 10
472 10
473 10
474 100
475 10
476 10
477 10
478 10
479 200
480 100
481 100
482 50
483 10
484 10
485 10
486 10
487 200
488 100
489 200
490 50
491 200
492 50
493 10
494 10
495 200
496 50
497 10
498 10
499 10
500 200
501 100
502 50
503 10
504 200
505 50
506 10
507 10
508 10
509 10
510 200
511 100
512 50
513 200
514 10
515 10
516 10
517 200
518 10
519 10
520 10
521 10
522 200
523 200
524 200
525 50
526 10
527 10
528 10
529 100
530 50
531 10
532 100
533 10
534 10
535 200
536 50
537 10
538 10
539 10
540 200
541 200
542 50
543 10
544 10
545 10
546 10
547 200
548 10
549 200
550 200
551 10
552 10
553 10
554 200
555 200
556 100
557 200
558 100
559 10
560 10
561 10
562 10
563 100
564 50
565 10
566 10
567 100
568 10
569 10
570 10
571 10
572 200
573 50
574 10
575 10
576 10
577 200
578 10
579 10
580 10
581 10
582 200
583 200
584 10
585 10
586 10
587 10
588 100
589 50
590 10
591 10
592 10
593 200
594 100
595 100
596 50
597 10
598 10
599 100
600 50
601 10
602 200
603 200
604 10
605 200
606 200
607 10
608 10
609 10
DEPOT_SECTION
1
-1
EOF