Normalized Data/p04_13_normalized_splitx10_0.sol
608 -8 7 6 5 103 105 104 106 489 488 -9 12 13 10 11 96 93 92 95 94 538 536 537 535 -24 22 26 21 20 25 23 548 552 550 549 551 438 441 440 437 439 -35 273 278 276 274 275 277 272 601 603 602 -36 37 38 471 470 472 469 468 353 64 62 -39 40 61 59 60 57 55 56 58 -42 43 44 312 313 310 309 311 480 483 485 484 481 482 137 136 139 138 -45 41 378 377 216 217 219 218 215 594 595 596 597 -46 48 47 366 365 364 516 520 519 517 518 -52 53 51 54 349 327 325 324 326 328 260 261 -63 65 283 286 285 287 282 284 333 334 335 337 336 332 -79 80 76 81 77 78 34 33 316 314 315 -85 84 403 406 404 592 3 4 2 1 512 -97 98 99 102 101 100 82 83 293 294 292 -115 118 116 119 117 352 351 350 225 220 224 223 222 221 226 -127 251 247 249 252 250 107 211 213 209 212 214 210 409 -135 133 134 131 132 32 27 29 31 28 30 264 266 265 -144 140 141 142 143 145 159 157 158 245 244 246 243 473 477 474 476 475 -146 147 -148 149 580 577 576 578 579 369 370 368 367 371 493 490 492 491 -150 301 302 300 524 527 525 526 522 523 -163 162 442 443 511 510 509 -164 165 421 423 173 174 171 172 464 467 463 466 465 373 374 372 376 375 533 -170 168 166 167 169 425 426 188 187 191 190 189 487 -176 175 178 180 177 179 68 67 66 330 331 329 -185 186 270 268 269 271 267 497 495 -195 194 193 196 192 203 205 204 206 207 208 202 161 160 530 528 529 -229 228 304 303 435 436 -231 230 363 361 262 263 152 151 340 342 341 -234 232 233 362 486 198 197 199 201 200 521 257 256 254 255 -235 236 155 154 153 156 539 540 545 544 -240 237 238 239 297 296 295 298 299 358 360 359 534 306 305 308 307 -241 242 555 553 554 248 130 129 125 126 128 408 -253 504 506 503 507 508 505 15 16 18 14 19 17 494 496 498 -259 258 398 400 399 401 402 69 70 532 531 -280 281 279 419 420 418 348 345 347 346 344 -289 288 291 290 573 575 574 571 572 49 50 379 382 380 381 -321 582 586 584 581 585 583 74 72 73 75 71 424 422 -355 357 356 354 587 588 591 590 589 322 323 431 429 432 430 427 428 -384 454 457 452 451 453 456 455 397 393 396 395 394 -386 387 383 385 338 343 339 447 448 570 568 566 569 567 -390 388 391 392 389 606 607 605 604 608 563 565 562 564 600 599 598 -405 593 112 108 114 110 113 109 111 416 417 412 411 410 413 514 513 515 -407 462 458 460 459 461 414 415 -433 434 499 500 557 556 -444 445 446 121 122 124 120 123 227 542 543 541 -450 449 89 88 87 91 86 90 478 479 -501 502 181 182 184 183 320 319 318 317 546 547 558 561 559 560 0 





OBJ=
4229.224
BEST_KNOWN=
0.000